benchmark_str_length/p2_10_4-4.dzn
Alphabet = {A,C,G,T};
ns = 10;
nc = 4;
sl = 10;
neighbours = [| I(G),I(C),I(T),I(G) | I(C),Null,Null,Null | I(G),Null,Null,Null | I(G),I(G),I(A),Null | I(C),I(G),I(A),Null | I(A),I(C),I(A),Null | I(T),I(T),I(A),Null | I(T),I(G),I(G),I(T) | I(G),I(C),I(G),I(G) | Null,Null,Null,Null |];
