benchmark_str_length/p2_10_4-4.txt
{
	"num_strings": 10,
	"alphabet": "ACGT",
	"strings": [
		"GCTG",
		"C",
		"G",
		"GGA",
		"CGA",
		"ACA",
		"TTA",
		"TGGT",
		"GCGG",
		""
	],
	"str_length":[4,1,1,3,3,3,3,4,4,0]
}